data/processed_heuristic-threshold/instances/1/9/ds_603_courier_3073/pairwise.tsp
NAME: ds_603_courier_3073
TYPE: TSP
COMMENT: nil
DIMENSION: 10
EDGE_WEIGHT_TYPE: EXPLICIT
EDGE_WEIGHT_FORMAT: FULL_MATRIX
EDGE_WEIGHT_SECTION
9999 1559 1104 2113 1079 1511 2131 2180 1932 2044 
1559 9999 469 570 500 110 581 628 462 488 
1104 469 9999 1010 35 408 1028 1096 901 956 
2113 570 1010 9999 1036 603 34 269 498 224 
1079 500 35 1036 9999 435 1054 1127 934 986 
1511 110 408 603 435 9999 620 700 566 558 
2131 581 1028 34 1054 620 9999 237 481 204 
2180 628 1096 269 1127 700 237 9999 333 142 
1932 462 901 498 934 566 481 333 9999 277 
2044 488 956 224 986 558 204 142 277 9999 
