data/processed_heuristic-threshold/instances/1/9/ds_603_courier_3073/pairwise.sol
10
0 8 9 7 6 3 1 5 2 4 
